(set-info :smt-lib-version 2.6)
(set-logic LIA)
(set-info
  :source |
 Generated by PSyCO 0.1
 More info in N. P. Lopes and J. Monteiro. Weakest Precondition Synthesis for
 Compiler Optimizations, VMCAI'14.
|)
(set-info :category "industrial")
(set-info :status sat)
(declare-fun W_S1_V3 () Bool)
(declare-fun W_S1_V2 () Bool)
(declare-fun W_S1_V1 () Bool)
(declare-fun W_S1_V6 () Bool)
(declare-fun W_S1_V5 () Bool)
(declare-fun W_S1_V4 () Bool)
(declare-fun R_S1_V3 () Bool)
(declare-fun R_S1_V2 () Bool)
(declare-fun R_S1_V1 () Bool)
(declare-fun R_S1_V6 () Bool)
(declare-fun R_S1_V5 () Bool)
(declare-fun R_S1_V4 () Bool)
(declare-fun R_E1_V2 () Bool)
(declare-fun R_E1_V6 () Bool)
(declare-fun R_E1_V5 () Bool)
(declare-fun R_E1_V4 () Bool)
(declare-fun R_E2_V1 () Bool)
(declare-fun R_E1_V3 () Bool)
(declare-fun R_E1_V1 () Bool)
(declare-fun R_E2_V3 () Bool)
(assert
 (let
 (($x62930
   (forall
    ((V4_0 Int) (V5_0 Int) 
     (V6_0 Int) (V2_0 Int) 
     (E2_!7947 Int) (E2_!7948 Int) 
     (E2_!7962 Int) (S1_V1_!7952 Int) 
     (S1_V1_!7958 Int) (S1_V1_!7967 Int) 
     (S1_V2_!7953 Int) (S1_V2_!7959 Int) 
     (S1_V2_!7968 Int) (S1_V3_!7954 Int) 
     (S1_V3_!7960 Int) (S1_V3_!7969 Int) 
     (E1_!7946 Int) (E1_!7961 Int) 
     (E1_!7963 Int) (E1_!7970 Int) 
     (S1_V5_!7950 Int) (S1_V5_!7956 Int) 
     (S1_V5_!7965 Int) (S1_V4_!7949 Int) 
     (S1_V4_!7955 Int) (S1_V4_!7964 Int) 
     (S1_V6_!7951 Int) (S1_V6_!7957 Int) 
     (S1_V6_!7966 Int))
    (let ((?x62548 (ite W_S1_V3 S1_V3_!7954 E2_!7948)))
    (let ((?x59838 (+ 1 ?x62548)))
    (let ((?x60133 (ite W_S1_V3 S1_V3_!7960 ?x59838)))
    (let ((?x63106 (ite W_S1_V2 S1_V2_!7968 V2_0)))
    (let ((?x62311 (ite W_S1_V2 S1_V2_!7959 V2_0)))
    (let (($x62461 (= ?x62311 ?x63106)))
    (let ((?x59778 (ite W_S1_V6 S1_V6_!7966 V6_0)))
    (let (($x62298 (= (ite W_S1_V6 S1_V6_!7957 V6_0) ?x59778)))
    (let ((?x59849 (ite W_S1_V5 S1_V5_!7965 V5_0)))
    (let (($x59752 (= (ite W_S1_V5 S1_V5_!7956 V5_0) ?x59849)))
    (let ((?x60876 (ite W_S1_V4 S1_V4_!7964 V4_0)))
    (let ((?x62335 (ite W_S1_V4 S1_V4_!7955 V4_0)))
    (let (($x60881 (= ?x62335 ?x60876)))
    (let
    (($x61126
      (and $x60881 $x59752 $x62298
      (= (ite W_S1_V1 S1_V1_!7958 E1_!7946) (+ (- 1) E1_!7970)) $x62461
      (= ?x60133 (+ 1 (ite W_S1_V3 S1_V3_!7969 E2_!7962))))))
    (let
    (($x61132
      (and (not (<= V4_0 E2_!7947)) 
      (not (<= V2_0 E1_!7946)) 
      (not (<= V4_0 E2_!7948))
      (not (<= (ite W_S1_V4 S1_V4_!7949 V4_0) ?x59838))
      (>= ?x60133 (+ (- 1) ?x62335))
      (>= (ite W_S1_V1 S1_V1_!7958 E1_!7946) (+ (- 1) ?x62311))
      (not (<= V2_0 E1_!7961)) 
      (not (<= V4_0 E2_!7962)) 
      (not (<= V2_0 E1_!7963))
      (>= (ite W_S1_V1 S1_V1_!7967 E1_!7963) (+ (- 1) ?x63106))
      (not (<= ?x60876 (+ 1 (ite W_S1_V3 S1_V3_!7969 E2_!7962))))
      (>= E1_!7970 ?x63106)
      (>= (ite W_S1_V3 S1_V3_!7969 E2_!7962) (+ (- 2) ?x60876)))))
    (let (($x62490 (= S1_V6_!7966 S1_V6_!7957)))
    (let (($x164 (not R_S1_V2)))
    (let (($x62670 (or $x164 (= V2_0 (ite W_S1_V2 S1_V2_!7953 V2_0)))))
    (let (($x162 (not R_S1_V1)))
    (let
    (($x62356 (or $x162 (= E1_!7963 (ite W_S1_V1 S1_V1_!7952 E1_!7946)))))
    (let (($x160 (not R_S1_V6)))
    (let (($x62268 (or $x160 (= V6_0 (ite W_S1_V6 S1_V6_!7951 V6_0)))))
    (let (($x158 (not R_S1_V5)))
    (let (($x62804 (or $x158 (= V5_0 (ite W_S1_V5 S1_V5_!7950 V5_0)))))
    (let (($x156 (not R_S1_V4)))
    (let (($x62447 (or $x156 (= V4_0 (ite W_S1_V4 S1_V4_!7949 V4_0)))))
    (let
    (($x63099
      (not
      (and $x62447 $x62804 $x62268 $x62356 $x62670
      (or (not R_S1_V3) (= E2_!7962 ?x59838))))))
    (let (($x59972 (= S1_V6_!7966 S1_V6_!7951)))
    (let
    (($x61023
      (not
      (and (or $x162 (= E1_!7963 E1_!7946))
      (or (not R_S1_V3) (= E2_!7962 E2_!7948))))))
    (let (($x59775 (= S1_V6_!7951 S1_V6_!7957)))
    (let
    (($x61060 (or $x162 (= E1_!7946 (ite W_S1_V1 S1_V1_!7952 E1_!7946)))))
    (let
    (($x62814
      (not
      (and $x62447 $x62804 $x62268 $x61060 $x62670
      (or (not R_S1_V3) (= E2_!7948 ?x59838))))))
    (let (($x61036 (= S1_V4_!7955 S1_V4_!7964)))
    (let (($x62531 (or $x164 (= (ite W_S1_V2 S1_V2_!7953 V2_0) V2_0))))
    (let
    (($x62522 (or $x162 (= (ite W_S1_V1 S1_V1_!7952 E1_!7946) E1_!7963))))
    (let (($x61301 (or $x160 (= (ite W_S1_V6 S1_V6_!7951 V6_0) V6_0))))
    (let (($x60985 (or $x158 (= (ite W_S1_V5 S1_V5_!7950 V5_0) V5_0))))
    (let (($x59859 (or $x156 (= (ite W_S1_V4 S1_V4_!7949 V4_0) V4_0))))
    (let
    (($x61112
      (and $x59859 $x60985 $x61301 $x62522 $x62531
      (or (not R_S1_V3) (= ?x62548 (+ (- 1) E2_!7962))))))
    (let (($x62525 (not $x61112)))
    (let (($x62334 (= S1_V4_!7949 S1_V4_!7964)))
    (let
    (($x63113
      (not
      (and (or $x162 (= E1_!7946 E1_!7963))
      (or (not R_S1_V3) (= E2_!7948 E2_!7962))))))
    (let (($x62650 (= E1_!7970 E1_!7946)))
    (let (($x90 (not R_E1_V2)))
    (let (($x62822 (or $x90 (= ?x63106 V2_0))))
    (let (($x86 (not R_E1_V6)))
    (let (($x60935 (or $x86 (= ?x59778 V6_0))))
    (let (($x84 (not R_E1_V5)))
    (let (($x60897 (or $x84 (= ?x59849 V5_0))))
    (let (($x82 (not R_E1_V4)))
    (let (($x59893 (or $x82 (= ?x60876 V4_0))))
    (let (($x60058 (= E1_!7963 E1_!7970)))
    (let (($x60240 (or $x90 (= V2_0 ?x63106))))
    (let (($x62429 (or $x86 (= V6_0 ?x59778))))
    (let (($x59976 (or $x84 (= V5_0 ?x59849))))
    (let (($x61397 (or $x82 (= V4_0 ?x60876))))
    (let (($x61243 (= E1_!7963 E1_!7961)))
    (let (($x62980 (= E1_!7963 E1_!7946)))
    (let (($x62448 (= E1_!7961 E1_!7946)))
    (let (($x59851 (= E2_!7962 E2_!7948)))
    (let (($x62205 (or (not (or (not R_E2_V1) $x62448)) $x59851)))
    (let
    (($x62249
      (or (not (or (not R_E2_V1) (= E1_!7946 E1_!7961)))
      (= E2_!7947 E2_!7962))))
    (let (($x62451 (= E2_!7947 E2_!7948)))
    (let
    (($x61341
      (and $x62451 $x62249 $x62205 
      (or $x62814 (= S1_V1_!7952 S1_V1_!7958))
      (or $x63113 (= S1_V1_!7952 S1_V1_!7967))
      (or $x62525 (= S1_V1_!7958 S1_V1_!7967))
      (or $x62814 (= S1_V2_!7953 S1_V2_!7959))
      (or $x61023 (= S1_V2_!7968 S1_V2_!7953))
      (or $x63099 (= S1_V2_!7968 S1_V2_!7959))
      (or $x62814 (= S1_V3_!7954 S1_V3_!7960))
      (or $x61023 (= S1_V3_!7969 S1_V3_!7954))
      (or $x63099 (= S1_V3_!7969 S1_V3_!7960)) $x62448
      (or (not (and $x61397 $x59976 $x62429 $x60240)) (= E1_!7961 E1_!7970))
      $x62980 $x61243
      (or (not (and $x61397 $x59976 $x62429 $x60240)) $x60058)
      (or (not (and $x59893 $x60897 $x60935 $x62822)) $x62650)
      (or $x62814 (= S1_V5_!7950 S1_V5_!7956))
      (or $x63113 (= S1_V5_!7950 S1_V5_!7965))
      (or $x62525 (= S1_V5_!7956 S1_V5_!7965))
      (or $x62814 (= S1_V4_!7949 S1_V4_!7955)) 
      (or $x63113 $x62334) 
      (or $x62525 $x61036) 
      (or $x62814 $x59775) 
      (or $x61023 $x59972) 
      (or $x63099 $x62490)))) 
    (or (not $x61341) (not $x61132) $x61126))))))))))))))))))))))))))))))))))))))))))))))))))))))))))))))))))))
 (let (($x13 (or W_S1_V4 W_S1_V5 W_S1_V6 W_S1_V1 W_S1_V2 W_S1_V3)))
 (let (($x61152 (not W_S1_V4)))
 (let (($x60922 (not W_S1_V5)))
 (let (($x60059 (not W_S1_V1)))
 (let (($x59754 (not W_S1_V6)))
 (let (($x166 (not R_S1_V3)))
 (let (($x164 (not R_S1_V2)))
 (let (($x62486 (not W_S1_V3)))
 (let (($x162 (not R_S1_V1)))
 (let (($x160 (not R_S1_V6)))
 (let (($x158 (not R_S1_V5)))
 (let (($x156 (not R_S1_V4)))
 (let
 (($x63200
   (or (and (not W_S1_V2) $x60059) 
   (and $x61152 $x62486) (and $x156 $x158 $x160 $x162 $x166 (not W_S1_V2))
   (and $x156 $x158 $x160 $x164 $x166 $x60059)
   (and $x158 $x160 $x162 $x164 $x166 $x61152)
   (and $x160 $x164 $x166 $x60059 $x60922 $x61152)
   (and $x156 $x160 $x162 $x166 (not W_S1_V2) $x60922)
   (and $x160 $x162 $x164 $x166 $x60922 $x61152)
   (and $x162 $x164 $x166 $x59754 $x60922 $x61152)
   (and $x156 $x158 $x160 $x162 $x164 $x166)
   (and $x156 $x158 $x162 $x164 $x59754 $x62486)
   (and $x156 $x160 $x162 $x164 $x60922 $x62486)
   (and $x156 $x162 $x164 $x59754 $x60922 $x62486)
   (and $x156 $x158 $x162 $x166 $x59754 (not W_S1_V2))
   (and $x156 $x162 $x59754 (not W_S1_V2) $x60922 $x62486)
   (and $x156 $x160 $x164 $x166 $x60059 $x60922)
   (and $x156 $x158 $x164 $x166 $x59754 $x60059)
   (and $x156 $x164 $x166 $x59754 $x60059 $x60922)
   (and $x156 $x158 $x160 $x162 (not W_S1_V2) $x62486)
   (and $x156 $x158 $x162 $x59754 (not W_S1_V2) $x62486)
   (and $x156 $x160 $x162 (not W_S1_V2) $x60922 $x62486)
   (and $x156 $x158 $x160 $x162 $x164 $x62486)
   (and $x158 $x160 $x164 $x166 $x60059 $x61152)
   (and $x158 $x164 $x166 $x59754 $x60059 $x61152)
   (and $x164 $x166 $x59754 $x60059 $x60922 $x61152))))
 (let (($x92 (not R_E1_V3)))
 (let (($x88 (not R_E1_V1)))
 (let (($x71 (not R_E2_V3))) (and $x71 $x88 $x92 $x63200 $x13 $x62930)))))))))))))))))))
(assert (not (and (not W_S1_V6) (not W_S1_V2) (not W_S1_V5) (not W_S1_V4))))
(assert (not (and (not R_E1_V4) (not R_E1_V5) (not R_E1_V6) (not W_S1_V2))))
(assert (not (and (not R_E1_V4) (not R_E1_V5) (not W_S1_V6) (not W_S1_V2))))
(assert (not (and (not R_E1_V4) (not R_E1_V6) (not W_S1_V2) (not W_S1_V5))))
(assert (not (and (not R_E1_V4) (not W_S1_V6) (not W_S1_V2) (not W_S1_V5))))
(assert
 (let (($x166 (not R_S1_V3)))
 (let (($x160 (not R_S1_V6)))
 (let (($x158 (not R_S1_V5)))
 (let (($x156 (not R_S1_V4))) (not (and W_S1_V3 $x156 $x158 $x160 $x166)))))))
(check-sat)
(exit)

